job_count = 20 ;
duration = [|21, 25, 5, 1|36, 25, 19, 9|27, 9, 2, 3|23, 3, 13, 7|32, 7, 17, 4|14, 19, 15, 3|5, 15, 13, 4|4, 26, 5, 9|12, 19, 17, 8|32, 26, 12, 2|29, 10, 4, 3|15, 29, 17, 2|4, 8, 10, 9|31, 29, 15, 7|23, 20, 7, 2|34, 8, 2, 3|33, 16, 9, 8|8, 26, 6, 1|14, 9, 11, 3|27, 7, 4, 5|] ;
machine_count = 4 ;
cost = [|17, 33, 42, 68|18, 38, 52, 72|18, 29, 54, 65|14, 30, 32, 56|12, 28, 38, 61|10, 37, 35, 70|16, 24, 31, 68|18, 33, 50, 78|11, 39, 44, 78|19, 37, 53, 53|14, 27, 31, 54|11, 20, 44, 70|18, 34, 58, 68|18, 36, 48, 63|10, 20, 33, 55|14, 22, 44, 79|12, 23, 51, 42|16, 39, 44, 74|10, 29, 55, 77|18, 36, 41, 52|] ;
deadline = [42, 42, 42, 42, 42, 42, 42, 42, 42, 42, 42, 42, 42, 42, 42, 42, 42, 42, 42, 42] ;
release = [0, 0, 0, 0, 0, 0, 0, 0, 0, 0, 0, 0, 0, 0, 0, 0, 0, 0, 0, 0] ;
resource = [|6, 6, 6, 6|4, 4, 4, 4|5, 5, 5, 5|6, 6, 6, 6|5, 5, 5, 5|7, 7, 7, 7|1, 1, 1, 1|7, 7, 7, 7|6, 6, 6, 6|9, 9, 9, 9|6, 6, 6, 6|1, 1, 1, 1|9, 9, 9, 9|6, 6, 6, 6|1, 1, 1, 1|5, 5, 5, 5|1, 1, 1, 1|4, 4, 4, 4|7, 7, 7, 7|5, 5, 5, 5|] ;
capacities = [10, 10, 10, 10] ;
